Version identifier: 20.1.0.0 | 2020-11-10 | 9bedb6d68
CPXPARAM_Parallel                                1
CPXPARAM_Simplex_Limits_Iterations               10000000
CPXPARAM_MIP_Interval                            100
CPXPARAM_TimeLimit                               1200
Found incumbent of value -5.0495986e+07 after 0.02 sec. (11.63 ticks)
Tried aggregator 2 times.
MIP Presolve eliminated 501 rows and 3001 columns.
MIP Presolve modified 10784 coefficients.
Aggregator did 8428 substitutions.
Reduced MIP has 49920 rows, 82722 columns, and 362880 nonzeros.
Reduced MIP has 6428 binaries, 0 generals, 0 SOSs, and 0 indicators.
Presolve time = 0.36 sec. (227.98 ticks)
Probing time = 0.07 sec. (11.06 ticks)
Tried aggregator 1 time.
Detecting symmetries...
Reduced MIP has 49920 rows, 82722 columns, and 362880 nonzeros.
Reduced MIP has 12843 binaries, 0 generals, 0 SOSs, and 0 indicators.
Presolve time = 0.36 sec. (167.70 ticks)
Probing time = 0.08 sec. (15.12 ticks)
MIP emphasis: balance optimality and feasibility.
MIP search method: dynamic search.
Parallel mode: deterministic, using up to 2 threads.
Root relaxation solution time = 3.56 sec. (3133.80 ticks)

        Nodes                                         Cuts/
   Node  Left     Objective  IInf  Best Integer    Best Bound    ItCnt     Gap

*     0+    0                      -5.04960e+07  -7.58841e+07            50.28%
      0     0  -5.13233e+07  3224  -5.04960e+07  -5.13233e+07    33521    1.64%
*     0+    0                      -5.12295e+07  -5.13233e+07             0.18%
      0     0  -5.12717e+07  2657  -5.12295e+07    Cuts: 9838    44718    0.08%
